min
 obj: +1 x0 +1 x1 +1 x2 +1 x3 +1 x4 +1 x5 +1 x6 +1 x7 +1 x8 +1 x9
st
 con0: +1 x0 +1 x1 +1 x2 +1 x4 +1 x6 >= +1
 con1: +1 x0 +1 x1 +1 x2 +1 x3 +1 x4 +1 x5 +1 x6 +1 x7 +1 x8 + x9 >= +2
 con2: +1 x0 +1 x1 +1 x3 +1 x5 +1 x6 >= +1
 con3: +1 x0 +1 x2 +1 x3 +1 x4 +1 x7 >= +1
 con4: +1 x1 +1 x2 +1 x3 +1 x5 +1 x7 >= +1
 con5: +1 x0 +1 x2 +1 x4 +1 x5 +1 x8 +x9 >= +1
 con6: +1 x1 +1 x3 +1 x4 +1 x5 +1 x8 + x9 >= +1
 con7: +1 x0 +1 x1 +1 x6 +1 x7 +1 x8 + x9 >= +1
 con8: +1 x2 +1 x3 +1 x6 +1 x7 +1 x8 + x9 >= +1
 con9: +1 x4 +1 x5 +1 x6 +1 x7 +1 x8 + x9 >= +1
 con10: +1 x4 +1 x5 +1 x6 +1 x7 +1 x8 + x9 >= +1
 con11: +1 x1 +1 x3 +1 x4 +1 x5 +1 x8 + x9 >= +1
 con12: +1 x0 +1 x1 +1 x2 +1 x3 +1 x4 +1 x5 +1 x6 +1 x7 +1 x8 + x9 >= +2
bounds
 +0 <= x0 <= +0
 +0 <= x1 <= +1
 +0 <= x2 <= +1
 +0 <= x3 <= +0
 +0 <= x4 <= +1
 +0 <= x5 <= +0
 +0 <= x6 <= +1
 +0 <= x7 <= +0
 +0 <= x8 <= +0
end